clingo version 5.4.1
Reading from provaASP13.lp
Solving...
Answer: 1
assign(1,5,2) assign(2,4,1) assign(3,1,2) assign(4,1,2) assign(5,6,2) assign(6,12,4) assign(7,11,1) assign(8,6,2) assign(9,11,1) assign(10,11,1) assign(11,11,1) assign(12,5,2) assign(13,5,2) assign(14,4,1) assign(15,8,4) assign(16,5,2) assign(17,13,3) assign(18,1,2) assign(19,6,2) assign(20,2,3) assign(21,8,4) assign(22,7,2) assign(23,12,4) assign(24,13,3) assign(25,14,4) assign(26,2,3) assign(27,15,4) assign(28,1,2) assign(29,8,4) assign(30,15,4) count_seats_occupied(1,4,2) count_seats_occupied(1,10,0) count_seats_occupied(1,11,4) count_seats_occupied(1,16,0) count_seats_occupied(2,1,4) count_seats_occupied(2,5,4) count_seats_occupied(2,6,3) count_seats_occupied(2,7,1) count_seats_occupied(3,2,2) count_seats_occupied(3,3,0) count_seats_occupied(3,9,0) count_seats_occupied(3,13,2) count_seats_occupied(4,8,3) count_seats_occupied(4,12,2) count_seats_occupied(4,14,1) count_seats_occupied(4,15,2)
Optimization: 4
Answer: 2
assign(1,8,4) assign(2,8,4) assign(3,11,3) assign(4,11,3) assign(5,11,3) assign(6,8,4) assign(7,11,3) assign(8,7,2) assign(9,6,2) assign(10,1,2) assign(11,1,2) assign(12,6,2) assign(13,13,4) assign(14,8,4) assign(15,10,4) assign(16,16,3) assign(17,16,3) assign(18,5,3) assign(19,16,3) assign(20,1,2) assign(21,13,4) assign(22,13,4) assign(23,13,4) assign(24,16,3) assign(25,2,3) assign(26,1,2) assign(27,2,3) assign(28,5,3) assign(29,6,2) assign(30,2,3) count_seats_occupied(1,3,0) count_seats_occupied(1,9,0) count_seats_occupied(1,14,0) count_seats_occupied(1,15,0) count_seats_occupied(2,1,4) count_seats_occupied(2,6,3) count_seats_occupied(2,7,1) count_seats_occupied(2,12,0) count_seats_occupied(3,2,3) count_seats_occupied(3,5,2) count_seats_occupied(3,11,4) count_seats_occupied(3,16,4) count_seats_occupied(4,4,0) count_seats_occupied(4,8,4) count_seats_occupied(4,10,1) count_seats_occupied(4,13,4)
Optimization: 3
Answer: 3
assign(1,5,3) assign(2,1,2) assign(3,2,3) assign(4,2,3) assign(5,2,3) assign(6,12,2) assign(7,2,3) assign(8,16,3) assign(9,7,2) assign(10,12,2) assign(11,6,2) assign(12,16,3) assign(13,11,3) assign(14,1,2) assign(15,7,2) assign(16,6,2) assign(17,5,3) assign(18,5,3) assign(19,7,2) assign(20,1,2) assign(21,11,3) assign(22,11,3) assign(23,11,3) assign(24,6,2) assign(25,7,2) assign(26,1,2) assign(27,12,2) assign(28,5,3) assign(29,6,2) assign(30,12,2) count_seats_occupied(1,3,0) count_seats_occupied(1,9,0) count_seats_occupied(1,14,0) count_seats_occupied(1,15,0) count_seats_occupied(2,1,4) count_seats_occupied(2,6,4) count_seats_occupied(2,7,4) count_seats_occupied(2,12,4) count_seats_occupied(3,2,4) count_seats_occupied(3,5,4) count_seats_occupied(3,11,4) count_seats_occupied(3,16,2) count_seats_occupied(4,4,0) count_seats_occupied(4,8,0) count_seats_occupied(4,10,0) count_seats_occupied(4,13,0)
Optimization: 2
OPTIMUM FOUND

Models       : 3
  Optimum    : yes
Optimization : 2
Calls        : 1
Time         : 0.115s (Solving: 0.02s 1st Model: 0.01s Unsat: 0.01s)
CPU Time     : 0.106s
